70
1208
5
67
85
67
83
26
0 2
0 3
0 8
0 14
0 15
0 16
0 18
0 19
0 21
0 22
0 27
0 28
0 33
0 34
0 35
0 40
0 42
0 45
0 46
0 47
0 50
0 53
0 55
0 56
0 58
0 59
0 61
0 68
0 69
1 5
1 6
1 7
1 8
1 10
1 11
1 13
1 16
1 18
1 23
1 25
1 28
1 30
1 32
1 35
1 36
1 37
1 39
1 40
1 44
1 45
1 47
1 48
1 51
1 55
1 56
1 58
1 59
1 60
1 62
1 63
1 64
1 65
1 69
2 3
2 5
2 7
2 8
2 10
2 11
2 12
2 15
2 16
2 17
2 18
2 23
2 26
2 32
2 34
2 38
2 39
2 40
2 41
2 42
2 43
2 44
2 46
2 50
2 51
2 52
2 53
2 54
2 58
2 59
2 61
2 62
2 64
2 65
2 66
2 68
3 5
3 6
3 7
3 9
3 11
3 12
3 13
3 14
3 15
3 18
3 20
3 21
3 26
3 27
3 28
3 35
3 37
3 39
3 40
3 43
3 44
3 45
3 50
3 51
3 53
3 60
3 61
4 5
4 6
4 10
4 12
4 13
4 15
4 16
4 17
4 18
4 21
4 22
4 24
4 25
4 27
4 28
4 29
4 33
4 34
4 36
4 37
4 39
4 42
4 43
4 44
4 46
4 47
4 49
4 52
4 56
4 62
4 63
4 66
4 67
5 7
5 8
5 9
5 10
5 11
5 12
5 13
5 14
5 17
5 21
5 22
5 23
5 24
5 26
5 27
5 28
5 30
5 36
5 37
5 40
5 41
5 42
5 43
5 46
5 49
5 50
5 52
5 53
5 54
5 57
5 58
5 59
5 63
5 64
5 66
5 67
5 69
6 9
6 10
6 11
6 13
6 16
6 18
6 20
6 22
6 25
6 26
6 27
6 28
6 30
6 32
6 35
6 38
6 39
6 40
6 42
6 44
6 45
6 47
6 49
6 50
6 58
6 60
6 64
6 65
6 66
6 67
6 69
7 10
7 18
7 22
7 24
7 26
7 27
7 28
7 29
7 31
7 36
7 39
7 40
7 41
7 44
7 45
7 47
7 48
7 50
7 52
7 54
7 55
7 58
7 60
7 63
7 65
7 66
7 67
7 68
7 69
8 9
8 11
8 12
8 13
8 16
8 17
8 21
8 23
8 26
8 29
8 30
8 31
8 34
8 35
8 37
8 38
8 47
8 49
8 53
8 54
8 55
8 57
8 59
8 60
8 61
8 62
8 64
8 65
8 66
8 67
9 11
9 15
9 20
9 21
9 22
9 24
9 25
9 26
9 29
9 32
9 35
9 39
9 40
9 41
9 42
9 43
9 44
9 45
9 48
9 49
9 51
9 60
9 61
9 62
9 63
9 65
9 66
9 67
9 68
9 69
10 11
10 12
10 13
10 14
10 15
10 17
10 20
10 24
10 26
10 28
10 29
10 30
10 32
10 33
10 35
10 36
10 37
10 40
10 42
10 45
10 46
10 49
10 51
10 52
10 53
10 57
10 58
10 59
10 61
10 62
10 63
10 64
10 68
10 69
11 13
11 17
11 18
11 19
11 21
11 23
11 24
11 25
11 26
11 27
11 28
11 29
11 33
11 36
11 37
11 38
11 40
11 41
11 48
11 49
11 50
11 51
11 53
11 54
11 55
11 57
11 58
11 59
11 63
11 68
11 69
12 13
12 14
12 16
12 19
12 20
12 22
12 23
12 24
12 25
12 28
12 29
12 30
12 32
12 33
12 34
12 35
12 36
12 39
12 40
12 46
12 49
12 51
12 52
12 53
12 54
12 55
12 56
12 57
12 58
12 59
12 61
12 64
12 65
12 66
12 69
13 14
13 15
13 17
13 19
13 22
13 24
13 25
13 26
13 28
13 30
13 31
13 36
13 37
13 38
13 40
13 42
13 43
13 45
13 46
13 47
13 50
13 52
13 53
13 56
13 63
14 15
14 17
14 18
14 23
14 26
14 27
14 28
14 29
14 30
14 31
14 33
14 34
14 37
14 39
14 40
14 42
14 43
14 45
14 47
14 48
14 50
14 52
14 53
14 54
14 55
14 56
14 57
14 60
14 61
14 63
14 67
14 68
15 17
15 18
15 22
15 23
15 24
15 25
15 29
15 33
15 37
15 41
15 43
15 47
15 51
15 56
15 58
15 64
15 66
15 67
15 68
15 69
16 18
16 20
16 22
16 23
16 24
16 30
16 31
16 33
16 36
16 37
16 40
16 41
16 42
16 45
16 46
16 47
16 49
16 50
16 51
16 52
16 56
16 58
16 59
16 60
16 62
16 66
16 68
16 69
17 18
17 20
17 22
17 23
17 24
17 29
17 30
17 31
17 32
17 33
17 34
17 38
17 40
17 42
17 43
17 46
17 49
17 53
17 54
17 56
17 57
17 61
17 62
17 63
17 66
18 19
18 23
18 24
18 25
18 26
18 27
18 28
18 32
18 35
18 37
18 38
18 39
18 40
18 43
18 44
18 45
18 51
18 52
18 53
18 59
18 61
18 63
18 65
18 66
18 67
18 68
18 69
19 20
19 21
19 23
19 24
19 25
19 27
19 30
19 31
19 35
19 36
19 37
19 38
19 39
19 41
19 42
19 43
19 46
19 47
19 48
19 51
19 55
19 58
19 59
19 60
19 61
19 62
19 65
19 67
19 68
20 24
20 28
20 29
20 37
20 38
20 39
20 42
20 45
20 48
20 52
20 54
20 55
20 60
20 62
20 64
20 68
21 23
21 24
21 25
21 28
21 30
21 31
21 36
21 39
21 43
21 44
21 45
21 50
21 51
21 54
21 56
21 57
21 58
21 59
21 62
21 63
21 64
21 69
22 29
22 32
22 34
22 35
22 37
22 38
22 39
22 41
22 44
22 48
22 50
22 51
22 52
22 57
22 58
22 59
22 60
22 62
22 64
22 66
22 67
22 69
23 27
23 30
23 31
23 34
23 35
23 36
23 38
23 39
23 41
23 44
23 50
23 57
23 59
23 63
23 66
23 67
24 27
24 28
24 31
24 32
24 33
24 36
24 37
24 38
24 39
24 41
24 42
24 46
24 48
24 51
24 52
24 53
24 54
24 60
24 61
24 63
24 64
24 65
24 66
24 68
24 69
25 27
25 28
25 29
25 32
25 34
25 35
25 36
25 37
25 38
25 39
25 41
25 44
25 45
25 46
25 48
25 51
25 52
25 53
25 56
25 61
25 62
25 63
25 65
25 67
25 68
26 29
26 30
26 31
26 32
26 33
26 34
26 40
26 41
26 42
26 44
26 45
26 48
26 50
26 52
26 54
26 59
26 62
26 64
26 66
26 67
26 68
26 69
27 28
27 29
27 30
27 34
27 35
27 37
27 39
27 42
27 47
27 48
27 55
27 57
27 58
27 60
27 63
27 65
27 68
27 69
28 30
28 31
28 32
28 33
28 35
28 36
28 38
28 39
28 43
28 44
28 45
28 50
28 51
28 53
28 56
28 57
28 59
28 61
28 64
28 66
28 67
28 68
29 31
29 34
29 35
29 36
29 37
29 40
29 41
29 42
29 44
29 45
29 50
29 52
29 56
29 58
29 62
29 63
29 64
29 67
30 31
30 32
30 33
30 34
30 41
30 44
30 47
30 48
30 49
30 50
30 51
30 53
30 54
30 59
30 61
30 62
30 68
31 32
31 37
31 38
31 39
31 40
31 41
31 47
31 48
31 50
31 51
31 53
31 56
31 57
31 59
31 60
31 61
31 62
31 63
31 64
31 66
31 68
32 34
32 36
32 37
32 40
32 41
32 42
32 43
32 44
32 48
32 49
32 51
32 52
32 53
32 56
32 58
32 59
32 62
32 64
33 34
33 35
33 40
33 43
33 48
33 49
33 50
33 51
33 52
33 53
33 55
33 59
33 61
33 65
34 35
34 36
34 37
34 38
34 43
34 45
34 46
34 47
34 48
34 50
34 52
34 53
34 55
34 57
34 59
34 61
34 65
34 69
35 37
35 39
35 41
35 45
35 47
35 49
35 50
35 51
35 52
35 53
35 55
35 56
35 57
35 58
35 60
35 61
35 62
35 63
35 64
35 68
36 37
36 39
36 41
36 44
36 45
36 46
36 47
36 51
36 53
36 55
36 57
36 59
36 60
36 61
36 62
36 65
36 68
37 38
37 39
37 40
37 41
37 43
37 45
37 49
37 51
37 53
37 56
37 57
37 60
37 62
37 65
37 67
37 68
37 69
38 39
38 41
38 42
38 50
38 52
38 53
38 54
38 55
38 59
38 60
38 62
38 64
38 67
38 68
39 41
39 42
39 43
39 44
39 48
39 49
39 51
39 54
39 56
39 58
39 60
39 61
39 62
39 63
39 69
40 41
40 42
40 43
40 45
40 46
40 48
40 49
40 50
40 51
40 54
40 55
40 56
40 60
40 61
40 62
40 63
40 64
40 67
40 68
40 69
41 42
41 43
41 45
41 46
41 48
41 49
41 53
41 57
41 59
41 60
41 64
41 65
41 67
41 68
42 43
42 44
42 48
42 49
42 53
42 60
42 61
42 65
42 66
42 69
43 44
43 45
43 48
43 50
43 51
43 54
43 57
43 58
43 60
43 62
43 63
43 66
43 67
43 68
43 69
44 46
44 47
44 48
44 50
44 54
44 55
44 56
44 57
44 58
44 59
44 60
44 62
44 64
44 65
44 66
44 67
44 68
45 47
45 48
45 52
45 55
45 56
45 64
45 66
45 68
45 69
46 47
46 51
46 52
46 53
46 55
46 56
46 57
46 58
46 60
46 61
46 63
46 64
46 67
47 48
47 51
47 56
47 59
47 60
47 64
47 66
47 67
47 68
47 69
48 50
48 52
48 53
48 54
48 55
48 56
48 60
48 64
48 65
48 66
48 69
49 52
49 53
49 54
49 55
49 57
49 58
49 59
49 60
49 61
49 62
49 63
49 64
49 65
49 66
49 69
50 51
50 52
50 53
50 56
50 59
50 61
50 63
50 64
50 65
51 53
51 55
51 61
51 62
51 63
51 65
51 66
51 67
51 69
52 54
52 57
52 58
52 62
52 63
52 65
52 66
52 68
52 69
53 54
53 55
53 56
53 57
53 58
53 59
53 61
53 63
53 67
54 56
54 57
54 60
54 65
54 66
54 67
54 68
55 60
55 61
55 66
55 69
56 61
56 63
56 64
56 65
56 66
56 68
56 69
57 58
57 60
57 62
57 63
57 64
57 65
57 66
57 67
58 59
58 60
58 62
58 63
58 65
58 68
58 69
59 62
59 63
59 65
59 69
60 61
60 65
60 67
60 68
61 64
61 65
61 67
61 68
62 63
62 65
62 67
62 68
63 64
63 68
64 66
64 67
64 68
64 69
65 67
65 68
66 69
67 69
21 60 46 9 5 55 56 65 29 1 67 58 51 50 3 69 22
34 13 26 30 19 62 35 18 63 33 15 12 2 47 0 48 66
68 44 14 40 43 27 6 10 4 16 61 42 8 53 49 24 23
41 57 64 39 59 17 37 28 25 11 36 7 32 45 54 52 38
20 31
